NAME : portcgen-18-24
COMMENT : portcgen N=18, seed=24
TYPE : TSP
DIMENSION : 18
EDGE_WEIGHT_TYPE : EUC_2D
NODE_COORD_SECTION
1 -218773 283764
2 284783 115795
3 -188893 54903
4 758581 -53199
5 -75434 69052
6 -82895 282803
7 28158 161476
8 159830 -64800
9 87919 262241
10 27659 266075
11 -134069 -452782
12 189520 -353282
13 -174690 -121571
14 193113 275692
15 -217669 -11693
16 -14932 120753
17 43831 341145
18 101919 -509884
